NAME : pr20.tsp.383008.tour
COMMENT : Length = 383008
COMMENT : Found by LKH [Keld Helsgaun] Sat Jun 10 02:09:35 2017
TYPE : TOUR
DIMENSION : 20
TOUR_SECTION
1
16
10
20
5
13
3
15
19
4
14
9
17
2
12
11
8
6
7
18
-1
EOF
